17	4
21	14	13	20	
0	0	0	0	0	3	2	3	4	
5	0	0	9	0	3	5	10	17	
1	0	0	0	4	3	16	17	17	
7	0	0	0	7	3	6	8	9	
6	0	0	0	10	3	6	7	9	
200	0	0	0	1	3	12	15	17	
150	0	7	0	0	3	13	17	17	
250	0	0	0	10	3	10	11	16	
50	0	0	0	8	3	12	17	17	
175	8	0	0	0	2	15	17	
150	9	0	0	0	3	14	17	17	
50	0	0	6	0	2	17	17	
3	0	0	0	5	3	17	17	17	
8	0	0	2	0	3	15	17	17	
4	0	5	0	0	3	17	17	17	
1	0	0	0	10	2	17	17	
0	0	0	0	0	0	
